p cnf 766 1811
1 0
-2 0
-3 0
-4 0
-5 0
-6 0
-7 0
-8 0
-9 0
-10 0
-11 0
1 -12 0
12 -1 0
13 14 0
15 14 0
-13 -15 -14 0
-2 14 -16 0
2 -14 -16 0
16 -14 -2 0
2 14 16 0
-16 0
17 18 0
19 18 0
-17 -19 -18 0
-15 18 -20 0
15 -18 -20 0
20 -18 -15 0
15 18 20 0
-20 0
21 22 0
23 22 0
-21 -23 -22 0
-19 22 -24 0
19 -22 -24 0
24 -22 -19 0
19 22 24 0
-24 0
25 26 0
27 26 0
-25 -27 -26 0
-23 26 -28 0
23 -26 -28 0
28 -26 -23 0
23 26 28 0
-28 0
29 30 0
31 30 0
-29 -31 -30 0
-27 30 -32 0
27 -30 -32 0
32 -30 -27 0
27 30 32 0
-32 0
33 34 0
35 34 0
-33 -35 -34 0
-31 34 -36 0
31 -34 -36 0
36 -34 -31 0
31 34 36 0
-36 0
37 38 0
39 38 0
-37 -39 -38 0
-35 38 -40 0
35 -38 -40 0
40 -38 -35 0
35 38 40 0
-40 0
41 42 0
43 42 0
-41 -43 -42 0
-39 42 -44 0
39 -42 -44 0
44 -42 -39 0
39 42 44 0
-44 0
45 46 0
47 46 0
-45 -47 -46 0
-43 46 -48 0
43 -46 -48 0
48 -46 -43 0
43 46 48 0
-48 0
49 50 0
51 50 0
-49 -51 -50 0
-47 50 -52 0
47 -50 -52 0
52 -50 -47 0
47 50 52 0
-52 0
53 54 0
55 54 0
-53 -55 -54 0
-51 54 -56 0
51 -54 -56 0
56 -54 -51 0
51 54 56 0
-56 0
57 58 0
59 58 0
-57 -59 -58 0
-55 58 -60 0
55 -58 -60 0
60 -58 -55 0
55 58 60 0
-60 0
61 62 0
63 62 0
-61 -63 -62 0
-59 62 -64 0
59 -62 -64 0
64 -62 -59 0
59 62 64 0
-64 0
65 66 0
67 66 0
-65 -67 -66 0
-63 66 -68 0
63 -66 -68 0
68 -66 -63 0
63 66 68 0
-68 0
41 69 0
45 69 0
49 69 0
53 69 0
57 69 0
61 69 0
65 69 0
70 69 0
-71 0
-67 69 -72 0
67 -69 -72 0
72 -69 -67 0
67 69 72 0
-72 0
73 74 0
75 74 0
-73 -75 -74 0
-3 74 -76 0
3 -74 -76 0
76 -74 -3 0
3 74 76 0
-76 0
77 78 0
79 78 0
-77 -79 -78 0
-75 78 -80 0
75 -78 -80 0
80 -78 -75 0
75 78 80 0
-80 0
81 82 0
83 82 0
-81 -83 -82 0
-79 82 -84 0
79 -82 -84 0
84 -82 -79 0
79 82 84 0
-84 0
85 86 0
87 86 0
-85 -87 -86 0
-83 86 -88 0
83 -86 -88 0
88 -86 -83 0
83 86 88 0
-88 0
89 90 0
91 90 0
-89 -91 -90 0
-87 90 -92 0
87 -90 -92 0
92 -90 -87 0
87 90 92 0
-92 0
93 94 0
95 94 0
-93 -95 -94 0
-91 94 -96 0
91 -94 -96 0
96 -94 -91 0
91 94 96 0
-96 0
97 98 0
99 98 0
-97 -99 -98 0
-95 98 -100 0
95 -98 -100 0
100 -98 -95 0
95 98 100 0
-100 0
101 102 0
103 102 0
-101 -103 -102 0
-99 102 -104 0
99 -102 -104 0
104 -102 -99 0
99 102 104 0
-104 0
105 106 0
107 106 0
-105 -107 -106 0
-103 106 -108 0
103 -106 -108 0
108 -106 -103 0
103 106 108 0
-108 0
109 110 0
111 110 0
-109 -111 -110 0
-107 110 -112 0
107 -110 -112 0
112 -110 -107 0
107 110 112 0
-112 0
113 114 0
115 114 0
-113 -115 -114 0
-111 114 -116 0
111 -114 -116 0
116 -114 -111 0
111 114 116 0
-116 0
117 118 0
119 118 0
-117 -119 -118 0
-115 118 -120 0
115 -118 -120 0
120 -118 -115 0
115 118 120 0
-120 0
93 121 0
97 121 0
101 121 0
105 121 0
109 121 0
113 121 0
117 121 0
122 121 0
-123 0
-119 121 -124 0
119 -121 -124 0
124 -121 -119 0
119 121 124 0
-124 0
125 126 0
127 126 0
-125 -127 -126 0
-4 126 -128 0
4 -126 -128 0
128 -126 -4 0
4 126 128 0
-128 0
129 130 0
131 130 0
-129 -131 -130 0
-127 130 -132 0
127 -130 -132 0
132 -130 -127 0
127 130 132 0
-132 0
133 134 0
135 134 0
-133 -135 -134 0
-131 134 -136 0
131 -134 -136 0
136 -134 -131 0
131 134 136 0
-136 0
137 138 0
139 138 0
-137 -139 -138 0
-135 138 -140 0
135 -138 -140 0
140 -138 -135 0
135 138 140 0
-140 0
141 142 0
143 142 0
-141 -143 -142 0
-139 142 -144 0
139 -142 -144 0
144 -142 -139 0
139 142 144 0
-144 0
145 146 0
147 146 0
-145 -147 -146 0
-143 146 -148 0
143 -146 -148 0
148 -146 -143 0
143 146 148 0
-148 0
149 150 0
151 150 0
-149 -151 -150 0
-147 150 -152 0
147 -150 -152 0
152 -150 -147 0
147 150 152 0
-152 0
153 154 0
155 154 0
-153 -155 -154 0
-151 154 -156 0
151 -154 -156 0
156 -154 -151 0
151 154 156 0
-156 0
157 158 0
159 158 0
-157 -159 -158 0
-155 158 -160 0
155 -158 -160 0
160 -158 -155 0
155 158 160 0
-160 0
161 162 0
163 162 0
-161 -163 -162 0
-159 162 -164 0
159 -162 -164 0
164 -162 -159 0
159 162 164 0
-164 0
165 166 0
167 166 0
-165 -167 -166 0
-163 166 -168 0
163 -166 -168 0
168 -166 -163 0
163 166 168 0
-168 0
169 170 0
171 170 0
-169 -171 -170 0
-167 170 -172 0
167 -170 -172 0
172 -170 -167 0
167 170 172 0
-172 0
173 174 0
175 174 0
-173 -175 -174 0
-171 174 -176 0
171 -174 -176 0
176 -174 -171 0
171 174 176 0
-176 0
157 177 0
161 177 0
165 177 0
169 177 0
173 177 0
178 177 0
-179 0
-175 177 -180 0
175 -177 -180 0
180 -177 -175 0
175 177 180 0
-180 0
181 182 0
183 182 0
-181 -183 -182 0
-5 182 -184 0
5 -182 -184 0
184 -182 -5 0
5 182 184 0
-184 0
185 186 0
187 186 0
-185 -187 -186 0
-183 186 -188 0
183 -186 -188 0
188 -186 -183 0
183 186 188 0
-188 0
189 190 0
191 190 0
-189 -191 -190 0
-187 190 -192 0
187 -190 -192 0
192 -190 -187 0
187 190 192 0
-192 0
193 194 0
195 194 0
-193 -195 -194 0
-191 194 -196 0
191 -194 -196 0
196 -194 -191 0
191 194 196 0
-196 0
197 198 0
199 198 0
-197 -199 -198 0
-195 198 -200 0
195 -198 -200 0
200 -198 -195 0
195 198 200 0
-200 0
201 202 0
203 202 0
-201 -203 -202 0
-199 202 -204 0
199 -202 -204 0
204 -202 -199 0
199 202 204 0
-204 0
205 206 0
207 206 0
-205 -207 -206 0
-203 206 -208 0
203 -206 -208 0
208 -206 -203 0
203 206 208 0
-208 0
209 210 0
211 210 0
-209 -211 -210 0
-207 210 -212 0
207 -210 -212 0
212 -210 -207 0
207 210 212 0
-212 0
213 214 0
215 214 0
-213 -215 -214 0
-211 214 -216 0
211 -214 -216 0
216 -214 -211 0
211 214 216 0
-216 0
217 218 0
219 218 0
-217 -219 -218 0
-215 218 -220 0
215 -218 -220 0
220 -218 -215 0
215 218 220 0
-220 0
221 222 0
223 222 0
-221 -223 -222 0
-219 222 -224 0
219 -222 -224 0
224 -222 -219 0
219 222 224 0
-224 0
201 225 0
205 225 0
209 225 0
213 225 0
217 225 0
221 225 0
226 225 0
-227 0
-223 225 -228 0
223 -225 -228 0
228 -225 -223 0
223 225 228 0
-228 0
229 230 0
231 230 0
-229 -231 -230 0
-6 230 -232 0
6 -230 -232 0
232 -230 -6 0
6 230 232 0
-232 0
233 234 0
235 234 0
-233 -235 -234 0
-231 234 -236 0
231 -234 -236 0
236 -234 -231 0
231 234 236 0
-236 0
237 238 0
239 238 0
-237 -239 -238 0
-235 238 -240 0
235 -238 -240 0
240 -238 -235 0
235 238 240 0
-240 0
241 242 0
243 242 0
-241 -243 -242 0
-239 242 -244 0
239 -242 -244 0
244 -242 -239 0
239 242 244 0
-244 0
245 246 0
247 246 0
-245 -247 -246 0
-243 246 -248 0
243 -246 -248 0
248 -246 -243 0
243 246 248 0
-248 0
249 250 0
251 250 0
-249 -251 -250 0
-247 250 -252 0
247 -250 -252 0
252 -250 -247 0
247 250 252 0
-252 0
253 254 0
255 254 0
-253 -255 -254 0
-251 254 -256 0
251 -254 -256 0
256 -254 -251 0
251 254 256 0
-256 0
257 258 0
259 258 0
-257 -259 -258 0
-255 258 -260 0
255 -258 -260 0
260 -258 -255 0
255 258 260 0
-260 0
261 262 0
263 262 0
-261 -263 -262 0
-259 262 -264 0
259 -262 -264 0
264 -262 -259 0
259 262 264 0
-264 0
265 266 0
267 266 0
-265 -267 -266 0
-263 266 -268 0
263 -266 -268 0
268 -266 -263 0
263 266 268 0
-268 0
269 270 0
271 270 0
-269 -271 -270 0
-267 270 -272 0
267 -270 -272 0
272 -270 -267 0
267 270 272 0
-272 0
273 274 0
275 274 0
-273 -275 -274 0
-271 274 -276 0
271 -274 -276 0
276 -274 -271 0
271 274 276 0
-276 0
277 278 0
279 278 0
-277 -279 -278 0
-275 278 -280 0
275 -278 -280 0
280 -278 -275 0
275 278 280 0
-280 0
253 281 0
257 281 0
261 281 0
265 281 0
269 281 0
273 281 0
277 281 0
282 281 0
-283 0
-279 281 -284 0
279 -281 -284 0
284 -281 -279 0
279 281 284 0
-284 0
285 286 0
287 286 0
-285 -287 -286 0
-7 286 -288 0
7 -286 -288 0
288 -286 -7 0
7 286 288 0
-288 0
289 290 0
291 290 0
-289 -291 -290 0
-287 290 -292 0
287 -290 -292 0
292 -290 -287 0
287 290 292 0
-292 0
293 294 0
295 294 0
-293 -295 -294 0
-291 294 -296 0
291 -294 -296 0
296 -294 -291 0
291 294 296 0
-296 0
297 298 0
299 298 0
-297 -299 -298 0
-295 298 -300 0
295 -298 -300 0
300 -298 -295 0
295 298 300 0
-300 0
301 302 0
303 302 0
-301 -303 -302 0
-299 302 -304 0
299 -302 -304 0
304 -302 -299 0
299 302 304 0
-304 0
305 306 0
307 306 0
-305 -307 -306 0
-303 306 -308 0
303 -306 -308 0
308 -306 -303 0
303 306 308 0
-308 0
309 310 0
311 310 0
-309 -311 -310 0
-307 310 -312 0
307 -310 -312 0
312 -310 -307 0
307 310 312 0
-312 0
313 314 0
315 314 0
-313 -315 -314 0
-311 314 -316 0
311 -314 -316 0
316 -314 -311 0
311 314 316 0
-316 0
317 318 0
319 318 0
-317 -319 -318 0
-315 318 -320 0
315 -318 -320 0
320 -318 -315 0
315 318 320 0
-320 0
321 322 0
323 322 0
-321 -323 -322 0
-319 322 -324 0
319 -322 -324 0
324 -322 -319 0
319 322 324 0
-324 0
325 326 0
327 326 0
-325 -327 -326 0
-323 326 -328 0
323 -326 -328 0
328 -326 -323 0
323 326 328 0
-328 0
329 330 0
331 330 0
-329 -331 -330 0
-327 330 -332 0
327 -330 -332 0
332 -330 -327 0
327 330 332 0
-332 0
309 333 0
313 333 0
317 333 0
321 333 0
325 333 0
329 333 0
334 333 0
-335 0
-331 333 -336 0
331 -333 -336 0
336 -333 -331 0
331 333 336 0
-336 0
337 338 0
339 338 0
-337 -339 -338 0
-8 338 -340 0
8 -338 -340 0
340 -338 -8 0
8 338 340 0
-340 0
341 342 0
343 342 0
-341 -343 -342 0
-339 342 -344 0
339 -342 -344 0
344 -342 -339 0
339 342 344 0
-344 0
345 346 0
347 346 0
-345 -347 -346 0
-343 346 -348 0
343 -346 -348 0
348 -346 -343 0
343 346 348 0
-348 0
349 350 0
351 350 0
-349 -351 -350 0
-347 350 -352 0
347 -350 -352 0
352 -350 -347 0
347 350 352 0
-352 0
353 354 0
355 354 0
-353 -355 -354 0
-351 354 -356 0
351 -354 -356 0
356 -354 -351 0
351 354 356 0
-356 0
357 358 0
359 358 0
-357 -359 -358 0
-355 358 -360 0
355 -358 -360 0
360 -358 -355 0
355 358 360 0
-360 0
119 361 0
362 361 0
-119 -362 -361 0
-359 361 -363 0
359 -361 -363 0
363 -361 -359 0
359 361 363 0
-363 0
364 365 0
366 365 0
-364 -366 -365 0
-9 365 -367 0
9 -365 -367 0
367 -365 -9 0
9 365 367 0
-367 0
368 369 0
370 369 0
-368 -370 -369 0
-366 369 -371 0
366 -369 -371 0
371 -369 -366 0
366 369 371 0
-371 0
372 373 0
374 373 0
-372 -374 -373 0
-370 373 -375 0
370 -373 -375 0
375 -373 -370 0
370 373 375 0
-375 0
376 377 0
378 377 0
-376 -378 -377 0
-374 377 -379 0
374 -377 -379 0
379 -377 -374 0
374 377 379 0
-379 0
380 381 0
382 381 0
-380 -382 -381 0
-378 381 -383 0
378 -381 -383 0
383 -381 -378 0
378 381 383 0
-383 0
384 385 0
386 385 0
-384 -386 -385 0
-382 385 -387 0
382 -385 -387 0
387 -385 -382 0
382 385 387 0
-387 0
388 389 0
390 389 0
-388 -390 -389 0
-386 389 -391 0
386 -389 -391 0
391 -389 -386 0
386 389 391 0
-391 0
392 393 0
394 393 0
-392 -394 -393 0
-390 393 -395 0
390 -393 -395 0
395 -393 -390 0
390 393 395 0
-395 0
396 397 0
398 397 0
-396 -398 -397 0
-394 397 -399 0
394 -397 -399 0
399 -397 -394 0
394 397 399 0
-399 0
380 400 0
384 400 0
388 400 0
392 400 0
396 400 0
401 400 0
-402 0
-398 400 -403 0
398 -400 -403 0
403 -400 -398 0
398 400 403 0
-403 0
404 405 0
406 405 0
-404 -406 -405 0
-10 405 -407 0
10 -405 -407 0
407 -405 -10 0
10 405 407 0
-407 0
408 409 0
410 409 0
-408 -410 -409 0
-406 409 -411 0
406 -409 -411 0
411 -409 -406 0
406 409 411 0
-411 0
412 413 0
414 413 0
-412 -414 -413 0
-410 413 -415 0
410 -413 -415 0
415 -413 -410 0
410 413 415 0
-415 0
416 417 0
418 417 0
-416 -418 -417 0
-414 417 -419 0
414 -417 -419 0
419 -417 -414 0
414 417 419 0
-419 0
420 421 0
422 421 0
-420 -422 -421 0
-418 421 -423 0
418 -421 -423 0
423 -421 -418 0
418 421 423 0
-423 0
424 425 0
426 425 0
-424 -426 -425 0
-422 425 -427 0
422 -425 -427 0
427 -425 -422 0
422 425 427 0
-427 0
428 429 0
430 429 0
-428 -430 -429 0
-426 429 -431 0
426 -429 -431 0
431 -429 -426 0
426 429 431 0
-431 0
432 433 0
434 433 0
-432 -434 -433 0
-430 433 -435 0
430 -433 -435 0
435 -433 -430 0
430 433 435 0
-435 0
436 437 0
438 437 0
-436 -438 -437 0
-434 437 -439 0
434 -437 -439 0
439 -437 -434 0
434 437 439 0
-439 0
440 441 0
442 441 0
-440 -442 -441 0
-438 441 -443 0
438 -441 -443 0
443 -441 -438 0
438 441 443 0
-443 0
444 445 0
446 445 0
-444 -446 -445 0
-442 445 -447 0
442 -445 -447 0
447 -445 -442 0
442 445 447 0
-447 0
448 449 0
450 449 0
-448 -450 -449 0
-446 449 -451 0
446 -449 -451 0
451 -449 -446 0
446 449 451 0
-451 0
424 452 0
428 452 0
432 452 0
436 452 0
440 452 0
444 452 0
448 452 0
453 452 0
-454 0
-450 452 -455 0
450 -452 -455 0
455 -452 -450 0
450 452 455 0
-455 0
456 457 0
458 457 0
-456 -458 -457 0
-11 457 -459 0
11 -457 -459 0
459 -457 -11 0
11 457 459 0
-459 0
460 461 0
462 461 0
-460 -462 -461 0
-458 461 -463 0
458 -461 -463 0
463 -461 -458 0
458 461 463 0
-463 0
464 465 0
466 465 0
-464 -466 -465 0
-462 465 -467 0
462 -465 -467 0
467 -465 -462 0
462 465 467 0
-467 0
468 469 0
470 469 0
-468 -470 -469 0
-466 469 -471 0
466 -469 -471 0
471 -469 -466 0
466 469 471 0
-471 0
472 473 0
474 473 0
-472 -474 -473 0
-470 473 -475 0
470 -473 -475 0
475 -473 -470 0
470 473 475 0
-475 0
476 477 0
478 477 0
-476 -478 -477 0
-474 477 -479 0
474 -477 -479 0
479 -477 -474 0
474 477 479 0
-479 0
480 481 0
482 481 0
-480 -482 -481 0
-478 481 -483 0
478 -481 -483 0
483 -481 -478 0
478 481 483 0
-483 0
484 485 0
486 485 0
-484 -486 -485 0
-482 485 -487 0
482 -485 -487 0
487 -485 -482 0
482 485 487 0
-487 0
488 489 0
490 489 0
-488 -490 -489 0
-486 489 -491 0
486 -489 -491 0
491 -489 -486 0
486 489 491 0
-491 0
492 493 0
494 493 0
-492 -494 -493 0
-490 493 -495 0
490 -493 -495 0
495 -493 -490 0
490 493 495 0
-495 0
496 497 0
498 497 0
-496 -498 -497 0
-494 497 -499 0
494 -497 -499 0
499 -497 -494 0
494 497 499 0
-499 0
500 501 0
502 501 0
-500 -502 -501 0
-498 501 -503 0
498 -501 -503 0
503 -501 -498 0
498 501 503 0
-503 0
480 504 0
484 504 0
488 504 0
492 504 0
496 504 0
500 504 0
505 504 0
-506 0
-502 504 -507 0
502 -504 -507 0
507 -504 -502 0
502 504 507 0
-507 0
-12 508 -509 0
12 -508 -509 0
-12 -508 509 0
12 508 509 0
-509 0
-13 510 -511 0
13 -510 -511 0
-13 -510 511 0
13 510 511 0
-511 0
-17 512 -513 0
17 -512 -513 0
-17 -512 513 0
17 512 513 0
-513 0
-21 514 -515 0
21 -514 -515 0
-21 -514 515 0
21 514 515 0
-515 0
-25 516 -517 0
25 -516 -517 0
-25 -516 517 0
25 516 517 0
-517 0
-29 518 -519 0
29 -518 -519 0
-29 -518 519 0
29 518 519 0
-519 0
-33 520 -521 0
33 -520 -521 0
-33 -520 521 0
33 520 521 0
-521 0
-37 522 -523 0
37 -522 -523 0
-37 -522 523 0
37 522 523 0
-523 0
-41 524 -525 0
41 -524 -525 0
-41 -524 525 0
41 524 525 0
-525 0
-45 526 -527 0
45 -526 -527 0
-45 -526 527 0
45 526 527 0
-527 0
-49 528 -529 0
49 -528 -529 0
-49 -528 529 0
49 528 529 0
-529 0
-53 530 -531 0
53 -530 -531 0
-53 -530 531 0
53 530 531 0
-531 0
-57 532 -533 0
57 -532 -533 0
-57 -532 533 0
57 532 533 0
-533 0
-61 534 -535 0
61 -534 -535 0
-61 -534 535 0
61 534 535 0
-535 0
-65 536 -537 0
65 -536 -537 0
-65 -536 537 0
65 536 537 0
-537 0
-70 538 -539 0
70 -538 -539 0
-70 -538 539 0
70 538 539 0
-539 0
-73 540 -541 0
73 -540 -541 0
-73 -540 541 0
73 540 541 0
-541 0
-77 542 -543 0
77 -542 -543 0
-77 -542 543 0
77 542 543 0
-543 0
-81 544 -545 0
81 -544 -545 0
-81 -544 545 0
81 544 545 0
-545 0
-85 546 -547 0
85 -546 -547 0
-85 -546 547 0
85 546 547 0
-547 0
-89 548 -549 0
89 -548 -549 0
-89 -548 549 0
89 548 549 0
-549 0
-93 550 -551 0
93 -550 -551 0
-93 -550 551 0
93 550 551 0
-551 0
-97 552 -553 0
97 -552 -553 0
-97 -552 553 0
97 552 553 0
-553 0
-101 554 -555 0
101 -554 -555 0
-101 -554 555 0
101 554 555 0
-555 0
-105 556 -557 0
105 -556 -557 0
-105 -556 557 0
105 556 557 0
-557 0
-109 558 -559 0
109 -558 -559 0
-109 -558 559 0
109 558 559 0
-559 0
-113 560 -561 0
113 -560 -561 0
-113 -560 561 0
113 560 561 0
-561 0
-117 562 -563 0
117 -562 -563 0
-117 -562 563 0
117 562 563 0
-563 0
-122 564 -565 0
122 -564 -565 0
-122 -564 565 0
122 564 565 0
-565 0
-125 566 -567 0
125 -566 -567 0
-125 -566 567 0
125 566 567 0
-567 0
-129 568 -569 0
129 -568 -569 0
-129 -568 569 0
129 568 569 0
-569 0
-133 570 -571 0
133 -570 -571 0
-133 -570 571 0
133 570 571 0
-571 0
-137 572 -573 0
137 -572 -573 0
-137 -572 573 0
137 572 573 0
-573 0
-141 574 -575 0
141 -574 -575 0
-141 -574 575 0
141 574 575 0
-575 0
-145 576 -577 0
145 -576 -577 0
-145 -576 577 0
145 576 577 0
-577 0
-149 578 -579 0
149 -578 -579 0
-149 -578 579 0
149 578 579 0
-579 0
-153 580 -581 0
153 -580 -581 0
-153 -580 581 0
153 580 581 0
-581 0
-157 582 -583 0
157 -582 -583 0
-157 -582 583 0
157 582 583 0
-583 0
-161 584 -585 0
161 -584 -585 0
-161 -584 585 0
161 584 585 0
-585 0
-165 586 -587 0
165 -586 -587 0
-165 -586 587 0
165 586 587 0
-587 0
-169 588 -589 0
169 -588 -589 0
-169 -588 589 0
169 588 589 0
-589 0
-173 590 -591 0
173 -590 -591 0
-173 -590 591 0
173 590 591 0
-591 0
-178 592 -593 0
178 -592 -593 0
-178 -592 593 0
178 592 593 0
-593 0
-181 594 -595 0
181 -594 -595 0
-181 -594 595 0
181 594 595 0
-595 0
-185 596 -597 0
185 -596 -597 0
-185 -596 597 0
185 596 597 0
-597 0
-189 598 -599 0
189 -598 -599 0
-189 -598 599 0
189 598 599 0
-599 0
-193 600 -601 0
193 -600 -601 0
-193 -600 601 0
193 600 601 0
-601 0
-197 602 -603 0
197 -602 -603 0
-197 -602 603 0
197 602 603 0
-603 0
-201 604 -605 0
201 -604 -605 0
-201 -604 605 0
201 604 605 0
-605 0
-205 606 -607 0
205 -606 -607 0
-205 -606 607 0
205 606 607 0
-607 0
-209 608 -609 0
209 -608 -609 0
-209 -608 609 0
209 608 609 0
-609 0
-213 610 -611 0
213 -610 -611 0
-213 -610 611 0
213 610 611 0
-611 0
-217 612 -613 0
217 -612 -613 0
-217 -612 613 0
217 612 613 0
-613 0
-221 614 -615 0
221 -614 -615 0
-221 -614 615 0
221 614 615 0
-615 0
-226 616 -617 0
226 -616 -617 0
-226 -616 617 0
226 616 617 0
-617 0
-229 618 -619 0
229 -618 -619 0
-229 -618 619 0
229 618 619 0
-619 0
-233 620 -621 0
233 -620 -621 0
-233 -620 621 0
233 620 621 0
-621 0
-237 622 -623 0
237 -622 -623 0
-237 -622 623 0
237 622 623 0
-623 0
-241 624 -625 0
241 -624 -625 0
-241 -624 625 0
241 624 625 0
-625 0
-245 626 -627 0
245 -626 -627 0
-245 -626 627 0
245 626 627 0
-627 0
-249 628 -629 0
249 -628 -629 0
-249 -628 629 0
249 628 629 0
-629 0
-253 630 -631 0
253 -630 -631 0
-253 -630 631 0
253 630 631 0
-631 0
-257 632 -633 0
257 -632 -633 0
-257 -632 633 0
257 632 633 0
-633 0
-261 634 -635 0
261 -634 -635 0
-261 -634 635 0
261 634 635 0
-635 0
-265 636 -637 0
265 -636 -637 0
-265 -636 637 0
265 636 637 0
-637 0
-269 638 -639 0
269 -638 -639 0
-269 -638 639 0
269 638 639 0
-639 0
-273 640 -641 0
273 -640 -641 0
-273 -640 641 0
273 640 641 0
-641 0
-277 642 -643 0
277 -642 -643 0
-277 -642 643 0
277 642 643 0
-643 0
-282 644 -645 0
282 -644 -645 0
-282 -644 645 0
282 644 645 0
-645 0
-285 646 -647 0
285 -646 -647 0
-285 -646 647 0
285 646 647 0
-647 0
-289 648 -649 0
289 -648 -649 0
-289 -648 649 0
289 648 649 0
-649 0
-293 650 -651 0
293 -650 -651 0
-293 -650 651 0
293 650 651 0
-651 0
-297 652 -653 0
297 -652 -653 0
-297 -652 653 0
297 652 653 0
-653 0
-301 654 -655 0
301 -654 -655 0
-301 -654 655 0
301 654 655 0
-655 0
-305 656 -657 0
305 -656 -657 0
-305 -656 657 0
305 656 657 0
-657 0
-309 658 -659 0
309 -658 -659 0
-309 -658 659 0
309 658 659 0
-659 0
-313 660 -661 0
313 -660 -661 0
-313 -660 661 0
313 660 661 0
-661 0
-317 662 -663 0
317 -662 -663 0
-317 -662 663 0
317 662 663 0
-663 0
-321 664 -665 0
321 -664 -665 0
-321 -664 665 0
321 664 665 0
-665 0
-325 666 -667 0
325 -666 -667 0
-325 -666 667 0
325 666 667 0
-667 0
-329 668 -669 0
329 -668 -669 0
-329 -668 669 0
329 668 669 0
-669 0
-334 670 -671 0
334 -670 -671 0
-334 -670 671 0
334 670 671 0
-671 0
-337 672 -673 0
337 -672 -673 0
-337 -672 673 0
337 672 673 0
-673 0
-341 674 -675 0
341 -674 -675 0
-341 -674 675 0
341 674 675 0
-675 0
-345 676 -677 0
345 -676 -677 0
-345 -676 677 0
345 676 677 0
-677 0
-349 678 -679 0
349 -678 -679 0
-349 -678 679 0
349 678 679 0
-679 0
-353 680 -681 0
353 -680 -681 0
-353 -680 681 0
353 680 681 0
-681 0
-357 682 -683 0
357 -682 -683 0
-357 -682 683 0
357 682 683 0
-683 0
-362 684 -685 0
362 -684 -685 0
-362 -684 685 0
362 684 685 0
-685 0
-364 686 -687 0
364 -686 -687 0
-364 -686 687 0
364 686 687 0
-687 0
-368 688 -689 0
368 -688 -689 0
-368 -688 689 0
368 688 689 0
-689 0
-372 690 -691 0
372 -690 -691 0
-372 -690 691 0
372 690 691 0
-691 0
-376 692 -693 0
376 -692 -693 0
-376 -692 693 0
376 692 693 0
-693 0
-380 694 -695 0
380 -694 -695 0
-380 -694 695 0
380 694 695 0
-695 0
-384 696 -697 0
384 -696 -697 0
-384 -696 697 0
384 696 697 0
-697 0
-388 698 -699 0
388 -698 -699 0
-388 -698 699 0
388 698 699 0
-699 0
-392 700 -701 0
392 -700 -701 0
-392 -700 701 0
392 700 701 0
-701 0
-396 702 -703 0
396 -702 -703 0
-396 -702 703 0
396 702 703 0
-703 0
-401 704 -705 0
401 -704 -705 0
-401 -704 705 0
401 704 705 0
-705 0
-404 706 -707 0
404 -706 -707 0
-404 -706 707 0
404 706 707 0
-707 0
-408 708 -709 0
408 -708 -709 0
-408 -708 709 0
408 708 709 0
-709 0
-412 710 -711 0
412 -710 -711 0
-412 -710 711 0
412 710 711 0
-711 0
-416 712 -713 0
416 -712 -713 0
-416 -712 713 0
416 712 713 0
-713 0
-420 714 -715 0
420 -714 -715 0
-420 -714 715 0
420 714 715 0
-715 0
-424 716 -717 0
424 -716 -717 0
-424 -716 717 0
424 716 717 0
-717 0
-428 718 -719 0
428 -718 -719 0
-428 -718 719 0
428 718 719 0
-719 0
-432 720 -721 0
432 -720 -721 0
-432 -720 721 0
432 720 721 0
-721 0
-436 722 -723 0
436 -722 -723 0
-436 -722 723 0
436 722 723 0
-723 0
-440 724 -725 0
440 -724 -725 0
-440 -724 725 0
440 724 725 0
-725 0
-444 726 -727 0
444 -726 -727 0
-444 -726 727 0
444 726 727 0
-727 0
-448 728 -729 0
448 -728 -729 0
-448 -728 729 0
448 728 729 0
-729 0
-453 730 -731 0
453 -730 -731 0
-453 -730 731 0
453 730 731 0
-731 0
-456 732 -733 0
456 -732 -733 0
-456 -732 733 0
456 732 733 0
-733 0
-460 734 -735 0
460 -734 -735 0
-460 -734 735 0
460 734 735 0
-735 0
-464 736 -737 0
464 -736 -737 0
-464 -736 737 0
464 736 737 0
-737 0
-468 738 -739 0
468 -738 -739 0
-468 -738 739 0
468 738 739 0
-739 0
-472 740 -741 0
472 -740 -741 0
-472 -740 741 0
472 740 741 0
-741 0
-476 742 -743 0
476 -742 -743 0
-476 -742 743 0
476 742 743 0
-743 0
-480 744 -745 0
480 -744 -745 0
-480 -744 745 0
480 744 745 0
-745 0
-484 746 -747 0
484 -746 -747 0
-484 -746 747 0
484 746 747 0
-747 0
-488 748 -749 0
488 -748 -749 0
-488 -748 749 0
488 748 749 0
-749 0
-492 750 -751 0
492 -750 -751 0
-492 -750 751 0
492 750 751 0
-751 0
-496 752 -753 0
496 -752 -753 0
-496 -752 753 0
496 752 753 0
-753 0
-500 754 -755 0
500 -754 -755 0
-500 -754 755 0
500 754 755 0
-755 0
-505 756 -757 0
505 -756 -757 0
-505 -756 757 0
505 756 757 0
-757 0
-758 -508 0
510 -758 0
512 -758 0
-758 -514 0
-758 -516 0
-758 -518 0
520 -758 0
-758 -522 0
-758 -524 0
526 -758 0
-758 -528 0
-758 -530 0
532 -758 0
534 -758 0
-758 -536 0
538 -758 0
-758 -540 0
-758 -542 0
-758 -544 0
546 -758 0
548 -758 0
550 -758 0
552 -758 0
554 -758 0
556 -758 0
-758 -558 0
-758 -560 0
562 -758 0
-758 -564 0
-758 -566 0
568 -758 0
-758 -570 0
-758 -572 0
574 -758 0
576 -758 0
-758 -578 0
580 -758 0
582 -758 0
584 -758 0
-758 -586 0
-758 -588 0
-758 -590 0
-758 -592 0
-758 -594 0
-758 -596 0
-758 -598 0
600 -758 0
602 -758 0
-758 -604 0
606 -758 0
608 -758 0
-758 -610 0
-758 -612 0
614 -758 0
-758 -616 0
-758 -618 0
-758 -620 0
-758 -622 0
-758 -624 0
626 -758 0
628 -758 0
-758 -630 0
632 -758 0
-758 -634 0
636 -758 0
638 -758 0
640 -758 0
-758 -642 0
-758 -644 0
646 -758 0
648 -758 0
650 -758 0
-758 -652 0
-758 -654 0
656 -758 0
658 -758 0
-758 -660 0
662 -758 0
-758 -664 0
-758 -666 0
668 -758 0
-758 -670 0
672 -758 0
674 -758 0
676 -758 0
678 -758 0
680 -758 0
682 -758 0
-758 -684 0
-758 -686 0
688 -758 0
690 -758 0
692 -758 0
694 -758 0
-758 -696 0
-758 -698 0
-758 -700 0
-758 -702 0
-758 -704 0
706 -758 0
-758 -708 0
-758 -710 0
712 -758 0
-758 -714 0
716 -758 0
718 -758 0
720 -758 0
-758 -722 0
724 -758 0
726 -758 0
728 -758 0
730 -758 0
732 -758 0
-758 -734 0
-758 -736 0
738 -758 0
-758 -740 0
-758 -742 0
-758 -744 0
746 -758 0
-758 -748 0
-758 -750 0
-758 -752 0
754 -758 0
756 -758 0
758 0
-759 0
-760 0
-761 0
-762 0
-763 0
-764 0
-765 0
-766 0
